831.60 0
0 53 40 21 72 74 22 41 2 57 15 43 42 87 13 0
0 58 73 75 56 23 67 39 25 55 4 54 26 0
0 31 10 32 90 63 64 49 36 47 46 8 45 83 18 0
0 50 33 81 51 9 35 71 65 66 20 30 70 1 69 0
0 28 76 77 3 79 78 34 29 24 68 80 12 0
0 97 92 98 91 44 14 38 86 16 61 17 84 5 60 89 0
0 27 88 62 11 19 48 82 7 52 0
0 94 95 59 37 100 85 93 99 96 6 0
